50
19858

537 786
584 779
211 17
322 701
683 659
253 831
829 986
395 475
425 528
447 856
497 332
343 681
607 361
526 377
664 276
152 288
484 255
936 302
774 375
104 584
367 416
817 615
267 85
607 495
592 738
113 903
278 285
744 733
660 83
276 77
756 200
99 292
731 926
350 371
428 601
413 228
738 91
650 39
149 752
145 368
280 601
588 728
952 321
375 59
842 464
895 182
77 509
302 757
79 775
928 936
